Route #1: 1 18 20 45 43 20 14 42 20 48 1 
Route #2: 1 11 51 10 11 47 1 
Route #3: 1 11 16 11 40 11 6 1 
Route #4: 1 13 38 1 
Route #5: 1 7 24 25 15 26 25 44 8 49 1 
Route #6: 1 39 50 11 31 35 11 46 34 11 1 
Route #7: 1 2 23 21 4 29 21 17 21 12 1 
Route #8: 1 19 20 41 20 5 1 
Route #9: 1 28 49 9 32 49 27 49 1 
Route #10: 1 33 3 21 37 36 21 30 22 21 1 
Cost 1054.0
